<?xml version = "1.0" encoding="UTF-8" standalone="yes"?>
<CPLEXSolution version="1.2">
 <header
   problemName="IloCplex"
   solutionName="p0"
   solutionIndex="-1"
   objectiveValue="0"
   solutionTypeValue="3"
   solutionTypeString="primal"
   solutionStatusValue="127"
   solutionStatusString="integer feasible solution"
   solutionMethodString="mip"
   primalFeasible="0"
   dualFeasible="0"
   writeLevel="3"/>
 <quality
   epInt="1.0000000000000001e-05"
   epRHS="9.9999999999999995e-07"
   maxIntInfeas="0"
   maxPrimalInfeas="0"
   maxX="1"
   maxSlack="1"/>
 <variables>
  <variable name="x0_68" index="178" value="1"/>
  <variable name="x1_99" index="309" value="1"/>
  <variable name="x2_43" index="353" value="1"/>
  <variable name="x3_55" index="465" value="1"/>
  <variable name="x4_14" index="524" value="1"/>
  <variable name="x5_27" index="637" value="1"/>
  <variable name="x6_53" index="763" value="1"/>
  <variable name="x7_71" index="881" value="1"/>
  <variable name="x8_5" index="915" value="1"/>
  <variable name="x9_66" index="1076" value="1"/>
  <variable name="x10_11" index="1121" value="1"/>
  <variable name="x11_10" index="1220" value="1"/>
  <variable name="x12_50" index="1360" value="1"/>
  <variable name="x13_41" index="1451" value="1"/>
  <variable name="x14_61" index="1571" value="1"/>
  <variable name="x15_87" index="1697" value="1"/>
  <variable name="x16_97" index="1807" value="1"/>
  <variable name="x17_90" index="1900" value="1"/>
  <variable name="x18_93" index="2003" value="1"/>
  <variable name="x19_34" index="2044" value="1"/>
  <variable name="x20_62" index="2172" value="1"/>
  <variable name="x21_15" index="2225" value="1"/>
  <variable name="x22_20" index="2330" value="1"/>
  <variable name="x23_49" index="2459" value="1"/>
  <variable name="x24_8" index="2518" value="1"/>
  <variable name="x25_39" index="2649" value="1"/>
  <variable name="x26_75" index="2785" value="1"/>
  <variable name="x27_18" index="2828" value="1"/>
  <variable name="x28_4" index="2914" value="1"/>
  <variable name="x29_23" index="3033" value="1"/>
  <variable name="x30_73" index="3183" value="1"/>
  <variable name="x31_47" index="3257" value="1"/>
  <variable name="x32_59" index="3369" value="1"/>
  <variable name="x33_86" index="3496" value="1"/>
  <variable name="x34_60" index="3570" value="1"/>
  <variable name="x35_21" index="3631" value="1"/>
  <variable name="x36_52" index="3762" value="1"/>
  <variable name="x37_70" index="3880" value="1"/>
  <variable name="x38_95" index="4005" value="1"/>
  <variable name="x39_9" index="4019" value="1"/>
  <variable name="x40_31" index="4141" value="1"/>
  <variable name="x41_13" index="4223" value="1"/>
  <variable name="x42_19" index="4329" value="1"/>
  <variable name="x43_2" index="4412" value="1"/>
  <variable name="x44_7" index="4517" value="1"/>
  <variable name="x45_78" index="4688" value="1"/>
  <variable name="x46_25" index="4735" value="1"/>
  <variable name="x47_81" index="4891" value="1"/>
  <variable name="x48_69" index="4979" value="1"/>
  <variable name="x49_92" index="5102" value="1"/>
  <variable name="x50_12" index="5122" value="1"/>
  <variable name="x51_63" index="5273" value="1"/>
  <variable name="x52_44" index="5354" value="1"/>
  <variable name="x53_6" index="5416" value="1"/>
  <variable name="x54_37" index="5547" value="1"/>
  <variable name="x55_3" index="5613" value="1"/>
  <variable name="x56_89" index="5799" value="1"/>
  <variable name="x57_1" index="5811" value="1"/>
  <variable name="x58_94" index="6004" value="1"/>
  <variable name="x59_54" index="6064" value="1"/>
  <variable name="x60_83" index="6193" value="1"/>
  <variable name="x61_77" index="6287" value="1"/>
  <variable name="x62_22" index="6332" value="1"/>
  <variable name="x63_74" index="6484" value="1"/>
  <variable name="x64_96" index="6606" value="1"/>
  <variable name="x65_29" index="6639" value="1"/>
  <variable name="x66_45" index="6755" value="1"/>
  <variable name="x67_80" index="6890" value="1"/>
  <variable name="x68_33" index="6943" value="1"/>
  <variable name="x69_48" index="7058" value="1"/>
  <variable name="x70_91" index="7201" value="1"/>
  <variable name="x71_84" index="7294" value="1"/>
  <variable name="x72_17" index="7327" value="1"/>
  <variable name="x73_51" index="7461" value="1"/>
  <variable name="x74_40" index="7550" value="1"/>
  <variable name="x75_65" index="7675" value="1"/>
  <variable name="x76_72" index="7782" value="1"/>
  <variable name="x77_32" index="7842" value="1"/>
  <variable name="x78_88" index="7998" value="1"/>
  <variable name="x79_24" index="8034" value="1"/>
  <variable name="x80_36" index="8146" value="1"/>
  <variable name="x81_67" index="8277" value="1"/>
  <variable name="x82_35" index="8345" value="1"/>
  <variable name="x83_82" index="8492" value="1"/>
  <variable name="x84_0" index="8510" value="1"/>
  <variable name="x85_30" index="8640" value="1"/>
  <variable name="x86_46" index="8756" value="1"/>
  <variable name="x87_57" index="8867" value="1"/>
  <variable name="x88_42" index="8952" value="1"/>
  <variable name="x89_16" index="9026" value="1"/>
  <variable name="x90_64" index="9174" value="1"/>
  <variable name="x91_79" index="9289" value="1"/>
  <variable name="x92_76" index="9386" value="1"/>
  <variable name="x93_98" index="9508" value="1"/>
  <variable name="x94_58" index="9568" value="1"/>
  <variable name="x95_38" index="9648" value="1"/>
  <variable name="x96_85" index="9795" value="1"/>
  <variable name="x97_26" index="9836" value="1"/>
  <variable name="x98_56" index="9966" value="1"/>
  <variable name="x99_28" index="10038" value="1"/>
  <variable name="u1" index="10111" value="1"/>
  <variable name="u2" index="10112" value="1"/>
  <variable name="u3" index="10113" value="1"/>
  <variable name="u5" index="10115" value="1"/>
  <variable name="u9" index="10119" value="1"/>
 </variables>
</CPLEXSolution>
